%nproc=16
# B3LYP/lanl2dz Test Pop=Full

Simulating platinum atoms

0 13
